# Solution for model r10_t18_m1_1
# Finished Task: 18 / 18
# Makespan: 526.0, Total Distance: 188.0, Total Time: 3.1114
# R O S F
0 0 16 78.0 78.0
1 1 -1 127.0 127.0
2 2 17 117.0 117.0
3 3 18 137.0 137.0
4 4 11 88.0 88.0
5 5 15 93.0 93.0
6 6 -1 133.0 133.0
7 7 24 100.0 100.0
8 8 26 45.0 45.0
9 9 19 141.0 141.0
10 0 27 458.0 492.0
11 4 23 329.0 368.0
12 8 13 365.0 398.0
13 8 20 410.0 442.0
14 3 22 479.0 503.0
15 5 21 326.0 365.0
16 0 10 402.0 438.0
17 2 25 245.0 280.0
18 3 14 442.0 472.0
19 9 -1 497.0 526.0
20 8 -1 449.0 481.0
21 5 -1 365.0 396.0
22 3 -1 503.0 526.0
23 4 -1 487.0 526.0
24 7 -1 296.0 329.0
25 2 -1 294.0 329.0
26 8 12 300.0 339.0
27 0 -1 492.0 526.0
